TCS_Benchmarks/redos_fix/snort1_output_distinct_2959_2958_9_0.txt
[^}]*
([^}]*)([pP][oO][sS][iI][tT][iI][oO][nN]:\s*[aA][bB][sS][oO][lL][uU][tT][eE])([^}]*)
[^}]*